# Objective value = 2.9546242322758712e+02
x[0] 0
x[1] 0
x[2] 0
x[3] 0
x[4] 0
x[5] 0
x[6] 1
x[7] 1
x[8] 0
x[9] 0
x[10] 0
x[11] 0
x[12] 0
x[13] 0
x[14] 1
x[15] 0
x[16] 0
x[17] 1.0000003486899203e+00
x[18] 1.0000002324152140e+00
x[19] 0
x[20] 1
x[21] 1.0000001584722467e+00
x[22] 0
x[23] -1.5852511717565539e-07
x[24] 1
x[25] 0
x[26] 0
x[27] 0
x[28] 1
x[29] 0
x[30] 0
x[31] 0
x[32] 1.0000002324361716e+00
x[33] 0
x[34] 1
x[35] -1.5519178392200369e-07
x[36] 1
x[37] 0
x[38] 0
x[39] 1
x[40] 0
x[41] 0
x[42] 0
x[43] -1.7437763088373884e-07
x[44] 1
x[45] 1
x[46] -3.4535658682715448e-07
x[47] 1
x[48] 0
x[49] 1
x[50] 0
x[51] 0
x[52] 1.0000001056383996e+00
x[53] 1
x[54] 0
x[55] -1.5852511725533702e-07
x[56] 1
x[57] 1
x[58] 0
x[59] -1.5852511725533702e-07
x[60] 0
x[61] 0
x[62] 1
x[63] -1.5852511725533702e-07
x[64] 1
x[65] 1.0000001584476261e+00
x[66] 1
x[67] 1
x[68] -3.9102862476328337e-07
x[69] 1
x[70] 1
x[71] 1
x[72] 1
x[73] -1.5852511725533702e-07
x[74] -1.5852511717565539e-07
x[75] 0
x[76] 0
x[77] 1
x[78] -1.5852511725533702e-07
x[79] -1.5852511703329242e-07
x[80] 1
x[81] 0
x[82] 0
x[83] 1
x[84] 1
x[85] -1.4267260373124202e-07
x[86] 1
x[87] 0
x[88] 0
x[89] 1.0000002324622272e+00
x[90] 1
x[91] 0
x[92] 0
x[93] 0
x[94] 0
x[95] 0
x[96] 1.0000001584814351e+00
x[97] 1
x[98] 0
x[99] 0
x[100] 0
x[101] 1
x[102] 0
x[103] 0
x[104] 1
x[105] 0
x[106] 1.0000003613694348e+00
x[107] 0
x[108] 1
x[109] 0
x[110] 0
x[111] 0
x[112] 0
x[113] 1.0000001584675846e+00
x[114] 0
x[115] 1.0000001584222580e+00
x[116] 0
x[117] -1.5519178392200369e-07
x[118] 0
x[119] -1.5852511703329242e-07
x[120] -1.5519178392200369e-07
x[121] 0
x[122] 0
x[123] 0
x[124] 0
x[125] 1
x[126] -3.1705023451067404e-07
x[127] 0
x[128] 1
x[129] 0
x[130] 1
x[131] 1
x[132] 1
x[133] 1.0000001584784648e+00
x[134] 0
x[135] 0
x[136] 1.0000003169784537e+00
x[137] 1
x[138] 1.0000001583586986e+00
x[139] -1.4267260373124202e-07
x[140] 0
x[141] 1
x[142] 1
x[143] 1
x[144] 1
x[145] 1
x[146] 1
x[147] -1.5852511725533702e-07
x[148] 1
x[149] 1.0000001426225418e+00
x[150] 1
x[151] 0
x[152] 0
x[153] 0
x[154] 1
x[155] 1
x[156] 1
x[157] 1
x[158] 1
x[159] 1
x[160] 1
x[161] 0
x[162] 1
x[163] -1.5852511725533702e-07
x[164] 1
x[165] 1.0000001584796208e+00
x[166] 0
x[167] 1.0000001584806995e+00
x[168] -1.5852511725533702e-07
x[169] 1
x[170] 0
x[171] 0
x[172] 1
x[173] 0
x[174] 0
x[175] 0
x[176] 1
x[177] 1.0000001584677938e+00
x[178] 1
x[179] 1
x[180] 1.0000001743055928e+00
x[181] 1
x[182] -1.4267260362693521e-07
x[183] 0
x[184] 1
x[185] 1
x[186] -1.5852511725533702e-07
x[187] 0
x[188] 0
x[189] 0
x[190] 1.0000003909692678e+00
x[191] 1
x[192] 0
x[193] 1
x[194] -3.1292225520700966e-07
x[195] 1
x[196] -3.1705023451067404e-07
x[197] 0
x[198] 1
x[199] 1
x[200] 0
x[201] 1
x[202] 1
x[203] -1.0568341132223942e-07
x[204] 1
x[205] 0
x[206] 1
x[207] 0
x[208] 0
x[209] -1.0568341135552828e-07
x[210] -1.5852511725533702e-07
x[211] 0
x[212] 0
x[213] 1
x[214] 1.0000001584667406e+00
x[215] 0
x[216] 1
x[217] 0
x[218] 0
x[219] 1
x[220] 1.0000003909832857e+00
x[221] 1.0000003169620557e+00
x[222] 0
x[223] 0
x[224] 1.0000003169267946e+00
x[225] 1
x[226] 0
x[227] 1.00000015847718
x[228] 0
x[229] 0
x[230] 1
x[231] 0
x[232] 1
x[233] -1.0568341135552828e-07
x[234] 1
x[235] 0
x[236] 0
x[237] 1
x[238] 1
x[239] 0
x[240] 1.0000001584785205e+00
x[241] -1.5852511725533702e-07
x[242] -1.5352511725533702e-07
x[243] 1
x[244] 1
x[245] -1.3767260373124202e-07
x[246] -1.5852511725533702e-07
x[247] 0
x[248] 0
x[249] 1
x[250] 0
x[251] 0
x[252] 0
x[253] 1
x[254] 1
x[255] 0
x[256] 0
x[257] 1
x[258] 1
x[259] 1
x[260] 0
x[261] 0
x[262] 0
x[263] 0
x[264] 1.0000001584671794e+00
x[265] 1
x[266] 1
x[267] -5.6040625559264872e-07
x[268] 1
x[269] 1
x[270] 0
x[271] 0
x[272] 0
x[273] 0
x[274] 1
x[275] 1
x[276] 0
x[277] -5.6207292222112093e-07
x[278] 1
x[279] 0
x[280] 0
x[281] 1
x[282] 1
x[283] 1
x[284] 0
x[285] -1.5362613776977067e-07
x[286] 0
x[287] 0
x[288] 0
x[289] -3.9102862481321665e-07
x[290] 0
x[291] 1
x[292] 0
x[293] 1.0000001584301832e+00
x[294] 1
x[295] 1.0000001582909643e+00
x[296] 1
x[297] 1
x[298] 0
x[299] 0
x[300] 1
x[301] 1.0000001056243875e+00
x[302] 0
x[303] 0
x[304] 1
x[305] 0
x[306] 1
x[307] 0
x[308] 1
x[309] 0
x[310] 1
x[311] 1
x[312] 0
x[313] -1.5514628752297795e-07
x[314] 1.0000003909397288e+00
x[315] 0
x[316] 1
x[317] 1.0000001584681166e+00
x[318] 1
x[319] 1.0000002639656063e+00
x[320] 0
x[321] 0
x[322] 1
x[323] 1.0000001583676112e+00
x[324] 1
x[325] 1
x[326] 1
x[327] 1
x[328] 0
x[329] 1
x[330] 1
x[331] 1
x[332] 1.0000001584792393e+00
x[333] 0
x[334] 0
x[335] 1
x[336] 0
x[337] 0
x[338] 0
x[339] 1.0000001584778038e+00
x[340] 1
x[341] 0
x[342] 1.0000001426105520e+00
x[343] 1
x[344] 0
x[345] 0
x[346] 0
x[347] 1
x[348] 0
x[349] 0
x[350] 1
x[351] -1.0568341135552828e-07
x[352] 0
x[353] 1.0557320359374088e-07
x[354] 1
x[355] 1
x[356] 0
x[357] 0
x[358] 1.0000003169723992e+00
x[359] 1
x[360] 1
x[361] 1
x[362] 0
x[363] 1.0000001584753644e+00
x[364] 0
x[365] -1.4267260373124202e-07
x[366] -2.3250350777992423e-07
x[367] 1
x[368] 1
x[369] 0
x[370] -1.5852511725533702e-07
x[371] 1
x[372] 0
x[373] 0
x[374] 0
x[375] 1
x[376] 0
x[377] -3.1705023451067404e-07
x[378] 1
x[379] 1
x[380] 1
x[381] 1
x[382] -1.5852511725533702e-07
x[383] 1.0000001584714675e+00
x[384] 0
x[385] 0
x[386] 1
x[387] 1
x[388] 1
x[389] 0
x[390] 0
x[391] 0
x[392] -1.5352511725533702e-07
x[393] 0
x[394] 0
x[395] 0
x[396] 1
x[397] 1
x[398] 1
x[399] 1
x[400] 0
x[401] 1
x[402] 1
x[403] 0
x[404] 1.0000001581460709e+00
x[405] 0
x[406] 1
x[407] 0
x[408] 1
x[409] 1.0000001584737666e+00
x[410] 1
x[411] 1
x[412] 1
x[413] 0
x[414] 1
x[415] -3.8602862481321665e-07
x[416] 0
x[417] 0
x[418] 0
x[419] 0
x[420] 1
x[421] 1
x[422] 1
x[423] 1
x[424] 1
x[425] 0
x[426] 1.0000001583353846e+00
x[427] 1
x[428] 1
x[429] 1
x[430] 0
x[431] 0
x[432] 1
x[433] 1
x[434] 1
x[435] -1.5852511725533702e-07
x[436] 0
x[437] 0
x[438] -1.5852511725533702e-07
x[439] 1
x[440] 1
x[441] 0
x[442] 0
x[443] 1
x[444] 1
x[445] 0
x[446] 1
x[447] 0
x[448] 1
x[449] 1.0000001584757388e+00
x[450] -3.1705023451067404e-07
x[451] 1
x[452] 1
x[453] 1
x[454] 1
x[455] 0
x[456] 0
x[457] 0
x[458] 0
x[459] 0
x[460] 0
x[461] 1
x[462] 0
x[463] 1
x[464] 1
x[465] -1.5852511725533702e-07
x[466] 0
x[467] 1
x[468] 0
x[469] 0
x[470] 1.0000001581943487e+00
x[471] 1.0000001583569125e+00
x[472] 1
x[473] 1
x[474] 1
x[475] 0
x[476] 1
x[477] 0
x[478] 0
x[479] 0
x[480] 0
x[481] 1
x[482] 1.0000001577247648e+00
x[483] 0
x[484] 1
x[485] 0
x[486] -1.5852511717565539e-07
x[487] 1
x[488] 1.0000001582913971e+00
x[489] 1
x[490] 0
x[491] 1
x[492] 1
x[493] 1
x[494] 1
x[495] 0
x[496] 1.00000031700627
x[497] 0
x[498] 1
x[499] 0
x[500] 1
x[501] 0
x[502] 0
x[503] 0
x[504] 1
x[505] 1
x[506] 0
x[507] -1.4267260373124202e-07
x[508] 1
x[509] 1
x[510] 1
x[511] 0
x[512] 1
x[513] 0
x[514] 0
x[515] 0
x[516] 1
x[517] 0
x[518] 0
x[519] 1.0000003170008092e+00
x[520] -1.5852511725533702e-07
x[521] 0
x[522] -2.2750350777992423e-07
x[523] 0
x[524] 0
x[525] 1
x[526] 0
x[527] 1
x[528] 0
x[529] 0
x[530] 1
x[531] -1.5852511706811161e-07
x[532] 0
x[533] -1.5852511725533702e-07
x[534] 1
x[535] 1
x[536] 1
x[537] 0
x[538] 1
x[539] 0
x[540] 0
x[541] 0
x[542] 0
x[543] 1
x[544] 1
x[545] -4.7224201838592914e-07
x[546] 1
x[547] 0
x[548] 0
x[549] 0
x[550] 0
x[551] 0
x[552] 1
x[553] -1.5513384594449990e-07
x[554] 0
x[555] 0
x[556] 0
x[557] 1
x[558] 0
x[559] 1
x[560] 0
x[561] 1
x[562] 1
x[563] 0
x[564] 1
x[565] -3.1705023451067404e-07
x[566] 0
x[567] 0
x[568] 1
x[569] 1
x[570] 0
x[571] 0
x[572] -1.5852511725533702e-07
x[573] 0
x[574] 0
x[575] 0
x[576] 0
x[577] 0
x[578] 1
x[579] 1.0000001584819471e+00
x[580] 1
x[581] 0
x[582] 0
x[583] -1.5852511722512084e-07
x[584] 0
x[585] 1
x[586] 0
x[587] 1
x[588] 1
x[589] 1
x[590] -1.5852511725533702e-07
x[591] 1.0000003166156686e+00
x[592] 1
x[593] 1
x[594] 1.0000001584298230e+00
x[595] 1
x[596] 1
x[597] 1
x[598] 1
x[599] 1
x[600] 1
x[601] 1
x[602] 1
x[603] 1
x[604] 0
x[605] 1
x[606] 1
x[607] 1
x[608] 1
x[609] 0
x[610] 0
x[611] 0
x[612] 1
x[613] -1.5852511725533702e-07
x[614] 0
x[615] -1.5852511725533702e-07
x[616] 0
x[617] 0
x[618] 0
x[619] 1
x[620] 1
x[621] 1
x[622] 1
x[623] 0
x[624] 0
x[625] 1
x[626] 0
x[627] 1.0000001583959306e+00
x[628] 1
x[629] 0
x[630] 1.0000001584781730e+00
x[631] 0
x[632] 1
x[633] 1.0000001584755334e+00
x[634] 1
x[635] 1.0000001584453957e+00
x[636] 1
x[637] 1
x[638] 1
x[639] 1
x[640] -1.5852511725533702e-07
x[641] 1
x[642] 0
x[643] 1
x[644] 1.0000002324602684e+00
x[645] -1.5852511725533702e-07
x[646] 0
x[647] 0
x[648] 0
x[649] 1
x[650] 0
x[651] 0
x[652] 0
x[653] -1.5352511725533702e-07
x[654] 1
x[655] 0
x[656] 1
x[657] 1
x[658] 1
x[659] -1.5852511725533702e-07
x[660] 1
x[661] -1.5352511725533702e-07
x[662] 0
x[663] 0
x[664] 0
x[665] 0
x[666] 1.0000001584341318e+00
x[667] 1
x[668] 1
x[669] 0
x[670] 1
x[671] 0
x[672] 0
x[673] 0
x[674] 1
x[675] 1
x[676] 0
x[677] 1
x[678] 1
x[679] 0
x[680] 1
x[681] 0
x[682] 1.0000001584145983e+00
x[683] 1
x[684] 0
x[685] 1
x[686] 0
x[687] 1
x[688] -1.5514240536963564e-07
x[689] 0
x[690] 1
x[691] 1
x[692] 1.0000001584262141e+00
x[693] 0
x[694] 1.0000001584734042e+00
x[695] 1
x[696] 1
x[697] 0
x[698] 1
x[699] 1
x[700] 1
x[701] 1
x[702] 1.0000001584127443e+00
x[703] 1.0000001584715428e+00
x[704] 0
x[705] 1
x[706] 1.0000001584739318e+00
x[707] 1
x[708] 0
x[709] 1
x[710] -1.5852511725533702e-07
x[711] 0
x[712] 1
x[713] 1
x[714] -1.7104429744609869e-07
x[715] -1.5519178392200369e-07
x[716] 0
x[717] -1.5852511725533702e-07
x[718] 1
x[719] 0
x[720] 1
x[721] 0
x[722] 0
x[723] 1.0000001426021830e+00
x[724] 0
x[725] 1.0000001583716835e+00
x[726] 0
x[727] 0
x[728] 1
x[729] 0
x[730] 0
x[731] 1
x[732] 1
x[733] 1
x[734] 1
x[735] 1
x[736] 1
x[737] 1.0000001426217604e+00
x[738] 0
x[739] 0
x[740] 0
x[741] 1
x[742] 1
x[743] 1
x[744] 0
x[745] 0
x[746] 0
x[747] 0
x[748] 1
x[749] 1.0000001584569280e+00
x[750] 0
x[751] 1
x[752] -1.5852511725533702e-07
x[753] -1.5852511725533702e-07
x[754] 1
x[755] -4.7557535104723431e-07
x[756] 0
x[757] 1.0000001584700657e+00
x[758] 1
x[759] 0
x[760] -1.5352511725533702e-07
x[761] 1
x[762] 0
x[763] 0
x[764] 0
x[765] 1
x[766] 0
x[767] 0
x[768] -1.5852511717565539e-07
x[769] -1.5852511722512084e-07
x[770] 1
x[771] 0
x[772] 1
x[773] -1.5509684981716520e-07
x[774] 1
x[775] 0
x[776] 0
x[777] 0
x[778] 1.0000001584436717e+00
x[779] 1
x[780] 1
x[781] 0
x[782] 0
x[783] 0
x[784] 0
x[785] 1
x[786] 0
x[787] 1
x[788] 1
x[789] 1
x[790] 0
x[791] 0
x[792] 1
x[793] 1.0000001584794411e+00
x[794] 1
x[795] 1
x[796] 1
x[797] -1.5509288074375190e-07
x[798] -2.2750350777992423e-07
x[799] 1
x[800] 1.0000001584400766e+00
x[801] 0
x[802] 1
x[803] 1.0000001582609110e+00
x[804] 1
x[805] 0
x[806] 0
x[807] 1
x[808] 1
x[809] 1
x[810] 0
x[811] 1
x[812] -3.8764995242257605e-07
x[813] 1
x[814] 0
x[815] 1
x[816] 1
x[817] 1.0000003169953506e+00
x[818] 0
x[819] 0
x[820] 0
x[821] 1.0000001584418103e+00
x[822] 0
x[823] 1.0000001584514113e+00
x[824] 1
x[825] 0
x[826] 0
x[827] 1
x[828] 1
x[829] 1
x[830] 0
x[831] 0
x[832] 1
x[833] 0
x[834] 0
x[835] 1
x[836] 0
x[837] 0
x[838] 0
x[839] 1
x[840] 1
x[841] 1
x[842] 1
x[843] 1
x[844] 1
x[845] 0
x[846] 0
x[847] 1
x[848] 0
x[849] 0
x[850] 0
x[851] 1
x[852] 1
x[853] 1
x[854] 1
x[855] 1
x[856] 0
x[857] 1.0000001584249061e+00
x[858] 0
x[859] 0
x[860] 1
x[861] -1.5352511725533702e-07
x[862] 1
x[863] 0
x[864] -1.5852511725533702e-07
x[865] 0
x[866] 0
x[867] 1
x[868] 0
x[869] 0
x[870] 0
x[871] 0
x[872] 1
x[873] 1.0000001584488951e+00
x[874] 0
x[875] 0
x[876] 1.0000001052391314e+00
x[877] -1.5852511722512084e-07
x[878] -3.1705023451067404e-07
x[879] 1
x[880] 0
x[881] 0
x[882] 0
x[883] 0
x[884] -1.5852511725533702e-07
x[885] 1.0000001584780847e+00
x[886] 0
x[887] -1.5852511725533702e-07
x[888] -1.5852511725533702e-07
x[889] 1
x[890] 1
x[891] 1
x[892] 1
x[893] 0
x[894] 0
x[895] 1
x[896] 0
x[897] 0
x[898] 0
x[899] 0
x[900] 1
x[901] 0
x[902] 1
x[903] 0
x[904] 0
x[905] 1
x[906] 1
x[907] 1
x[908] 0
x[909] 0
x[910] 1
x[911] 1
x[912] 1.0000002324268586e+00
x[913] 1
x[914] 0
x[915] 1
x[916] 1
x[917] -1.5852511725533702e-07
x[918] 1
x[919] -3.8764995242257605e-07
x[920] -1.5352511725533702e-07
x[921] 0
x[922] 1.0000001583022666e+00
x[923] 0
x[924] 0
x[925] 0
x[926] -3.1205023451067404e-07
x[927] 1.0000001743310836e+00
x[928] 0
x[929] 0
x[930] 1
x[931] 1
x[932] 1
x[933] 1
x[934] 1
x[935] 1
x[936] 0
x[937] 1
x[938] 1
x[939] 0
x[940] 0
x[941] 0
x[942] 1
x[943] 1.0000001584806673e+00
x[944] 1.0000002323982904e+00
x[945] 1
x[946] 1
x[947] 1
x[948] 0
x[949] 0
x[950] 1.0000001584530640e+00
x[951] 1
x[952] 1
x[953] 1
x[954] 1
x[955] 0
x[956] 1
x[957] 1
x[958] 1
x[959] 1
x[960] 0
x[961] 1
x[962] 0
x[963] 0
x[964] 1
x[965] -2.2908188058311281e-07
x[966] 0
x[967] 0
x[968] 1
x[969] 0
x[970] 1
x[971] 1
x[972] 1.0000001583014935e+00
x[973] 0
x[974] 0
x[975] -3.1705023435131078e-07
x[976] 1.00000056535813
x[977] 1.0000001583246867e+00
x[978] 0
x[979] 1
x[980] 1.0000001584333840e+00
x[981] 1
x[982] 0
x[983] 0
x[984] 0
x[985] 0
x[986] 0
x[987] -2.2912693513152885e-07
x[988] 0
x[989] 1
x[990] 1
x[991] -1.5852511725533702e-07
x[992] 0
x[993] -1.5852511717565539e-07
x[994] 0
x[995] 0
x[996] 0
x[997] 1
x[998] -1.5852511725533702e-07
x[999] 1
